NAME : LPS-n34-m186
COMMENT : (Lartu-Peter-Santi Plot, instance 12586 out of 39200. 34 customers.)
TYPE : CVRP
DIMENSION : 34
EDGE_WEIGHT_TYPE : EUC_2D
CAPACITY : 108
NODE_COORD_SECTION
 1 14 72
 2 39 40
 3 75 4
 4 92 98
 5 16 9
 6 86 93
 7 63 53
 8 60 84
 9 26 50
 10 4 49
 11 78 96
 12 49 83
 13 56 51
 14 27 86
 15 67 68
 16 51 18
 17 21 26
 18 83 58
 19 56 65
 20 44 47
 21 16 5
 22 30 48
 23 84 71
 24 44 62
 25 60 42
 26 71 20
 27 95 83
 28 22 12
 29 10 80
 30 6 7
 31 39 70
 32 14 76
 33 82 11
 34 27 45
DEMAND_SECTION
1 0
2 36
3 90
4 15
5 13
6 73
7 103
8 44
9 53
10 77
11 76
12 54
13 43
14 59
15 98
16 15
17 100
18 69
19 92
20 62
21 90
22 67
23 79
24 81
25 58
26 104
27 107
28 2
29 7
30 4
31 92
32 70
33 69
34 96
DEPOT_SECTION
 1
 -1
EOF
